
Gurobi 9.5.2 (win64, Python) logging started Tue Jun 20 14:14:01 2023

Set parameter Username
Set parameter LogFile to value "gurobi.log"
Academic license - for non-commercial use only - expires 2023-11-02
